
%FILE DATA:	Soccer Computational Problem for MiniZinc Models	%
%AUTHOR:	Jack Wall	%
%CONTACT:  	116397063@umail.ucc.ie			%
%LAST UPDATE:	02/24/2020, 18:51:12						%
%DESCRIPTION: 	54 games played with 18 games left				%


n=9; %number of teams

%Games to play
games=[|9,8|2,9|8,6|7,3|4,7|1,9|7,1|9,1|6,2|7,4|4,8|4,9|5,4|2,8|5,8|9,6|1,2|4,2|];

%Initial points
iPoints=[19,16,18,17,16,16,9,18,10];

%POSITION CONSTRAINTS
% [|teamID, operator, position|...]
% operators index:
%  1 for =  operator
%  2 for >  operator
%  3 for >= operator
%  4 for <  operator
%  5 for <= operator
positionConstraints=[|2,4,2|5,4,3|1,3,3|];